* #variable= 44 #constraint= 3 
+1 x1 -1 x23 +2 x2 -2 x24 +4 x3 -4 x25 +8 x4 -8 x26 +16 x5 -16 x27 +32 x6 -32 x28 +64 x7 -64 x29 +128 x8 -128 x30 +256 x9 -256 x31 +512 x10 -512 x32 +1024 x11 -1024 x33 +2048 x12 -2048 x34 +4096 x13 -4096 x35 +8192 x14 -8192 x36 +16384 x15 -16384 x37 +32768 x16 -32768 x38 +65536 x17 -65536 x39 +131072 x18 -131072 x40 +262144 x19 -262144 x41 +524288 x20 -524288 x42 +1048576 x21 -1048576 x43 +2097152 x22 -2097152 x44 = 0 ;
-1 x1 -1 x23 >= -1; 
+1 x1 +1 x23 >= 1; 
